&input
  flfrc = 'FC.os'
  fildyn = 'DYN.mat'
  zasr = 'simple'
  loto_2d = .true.
  !write_lr = .true.
/
